p cnf 33 37
-1 30 0 
-1 31 0 
-2 5 7 17 20 21 31 0 
-3 10 31 0 
-4 6 14 19 23 24 32 0 
-5 2 7 17 20 21 32 0 
-3 10 32 0 
-6 4 14 19 23 24 31 0 
-7 2 5 17 20 21 32 0 
-8 -9 30 0 
-10 3 31 0 
-11 16 30 0 
-12 -10 3 31 0 
-13 28 30 0 
-14 4 6 19 23 24 30 0 
-15 18 31 0 
-16 11 32 0 
-15 18 30 0 
-17 2 5 7 20 21 30 0 
-18 15 31 0 
-19 4 6 14 23 24 32 0 
-3 10 30 0 
-20 2 5 7 17 21 32 0 
-18 15 30 0 
-10 3 30 0 
-21 2 5 7 17 20 30 0 
-10 3 30 0 
-22 26 31 0 
-23 4 6 14 19 24 30 0 
-23 4 6 14 19 24 31 0 
-24 4 6 14 19 23 -25 32 0 
-26 22 30 0 
-21 2 5 7 17 20 33 0 
-10 3 33 0 
-27 -28 13 32 0 
-26 22 31 0 
-29 -23 4 6 14 19 24 33 0 
